p cnf 7230 15
-3472 -3482 -3486 -3496 -3544 3986 0
3472 -3987 0
3482 -3987 0
3486 -3987 0
3496 -3987 0
-3986 3987 0
-3983 3985 0
3984 -3985 0
3982 -3984 0
-3470 3983 0
3470 -3982 0
-3456 3981 0
3980 -3981 0
3456 -3980 0
3544 -3987 0
